WARNING: for repeatability, setting FPU to use double precision
============================[ Problem Statistics ]=============================
|                                                                             |
|  Number of variables:         84462                                         |
|  Number of clauses:          202147                                         |
|  Parse time:                   0.08 s                                       |
|                                                                             |
c ============================[ Search Statistics ]==============================
c | Conflicts |          ORIGINAL         |          LEARNT          | Progress |
c |           |    Vars  Clauses Literals |    Limit  Clauses Lit/Cl |          |
c ===============================================================================
c Switched to VSIDS.
c Switched to LRB.
c Switched to VSIDS.
c Switched to LRB.
c Switched to VSIDS.
c Switched to LRB.
c Switched to VSIDS.
c Switched to LRB.
c Switched to VSIDS.
c Switched to LRB.
c Switched to VSIDS.
c Switched to LRB.
c Switched to VSIDS.
c Switched to LRB.
c Switched to VSIDS.
c Switched to LRB.
c Switched to VSIDS.
c Switched to LRB.
c Switched to VSIDS.
c Switched to LRB.
c Switched to VSIDS.
c Switched to LRB.
c Switched to VSIDS.
c Switched to LRB.
c Switched to VSIDS.
c Switched to LRB.
c Switched to VSIDS.
c Switched to LRB.
c Switched to VSIDS.
c Switched to LRB.
c Switched to VSIDS.
c Switched to LRB.
c Switched to VSIDS.
c Switched to LRB.
c ===============================================================================
restarts                  : 57552
conflicts                 : 13170546       (3722 /sec)
decisions                 : 106181106      (0.00 % random) (30010 /sec)
propagations              : 7911485542     (2236044 /sec)
conflict literals         : 876795230      (10.12 % deleted)

conflicts w/ DIP found    : 11230463       (85.27 % of conflicts)
conflicts w/ dangerous DIP: 0              (0.00 % of conflicts)
conflicts w/ DIP-learning : 197225         (1.50 % of conflicts)
decisions on ext vars     : 13438657       (12.66 % of decisions)
total ext vars            : 18409       
tried delete ext vars     : 0           
deleted ext vars          : 0           
max ext vars              : 18409       

Memory used               : 784.00 MB
CPU time                  : 3538.16 s
DIP computation time      : 104.764 s (2.96 % of total time)
ER_sel time               : 17.4866 s
ER_add time               : 0.089863 s
ER_delC time              : 0 s
ER_delV time              : 0 s
ER_sub time               : 21.7822 s
ER_stat time              : 0 s

INDETERMINATE
